c FILE: i160-315

c SOURCE: From steinlib

c DESCRIPTION: Steinlib instance with 160 nodes and 812 edges.

p edge 160 812
e 1 7
e 1 24
e 1 31
e 1 37
e 1 47
e 1 53
e 1 66
e 1 77
e 1 89
e 1 101
e 1 111
e 1 113
e 1 119
e 2 10
e 2 25
e 2 41
e 2 59
e 2 99
e 2 117
e 2 141
e 2 150
e 2 158
e 3 31
e 3 140
e 3 144
e 3 151
e 3 153
e 3 154
e 3 155
e 4 11
e 4 38
e 4 61
e 4 69
e 4 82
e 4 89
e 5 8
e 5 32
e 5 64
e 5 94
e 6 20
e 6 23
e 6 40
e 6 46
e 6 53
e 6 57
e 6 69
e 6 87
e 6 119
e 6 157
e 7 21
e 7 69
e 7 70
e 7 74
e 7 99
e 7 103
e 7 123
e 7 143
e 7 155
e 8 26
e 8 107
e 8 132
e 8 137
e 9 10
e 9 20
e 9 21
e 9 63
e 9 73
e 9 84
e 9 96
e 9 120
e 9 129
e 9 145
e 10 32
e 10 56
e 10 61
e 10 63
e 10 81
e 10 85
e 10 109
e 10 121
e 10 145
e 11 17
e 11 26
e 11 27
e 11 44
e 11 47
e 11 61
e 11 62
e 11 94
e 11 127
e 12 18
e 12 59
e 12 80
e 12 81
e 12 91
e 12 107
e 12 117
e 12 140
e 12 142
e 12 149
e 13 17
e 13 27
e 13 30
e 13 38
e 13 51
e 13 70
e 13 73
e 13 82
e 13 88
e 13 92
e 13 98
e 13 105
e 13 107
e 13 142
e 13 156
e 14 44
e 14 55
e 14 61
e 14 65
e 14 73
e 14 78
e 14 111
e 14 139
e 14 142
e 14 147
e 14 152
e 14 155
e 15 33
e 15 49
e 15 55
e 15 61
e 15 83
e 15 85
e 15 111
e 15 120
e 15 129
e 15 154
e 16 22
e 16 46
e 16 76
e 16 89
e 16 132
e 16 143
e 16 154
e 17 23
e 17 34
e 17 36
e 17 39
e 17 72
e 17 77
e 17 93
e 17 94
e 17 118
e 17 127
e 17 132
e 17 140
e 18 24
e 18 58
e 18 87
e 18 98
e 18 119
e 18 120
e 18 142
e 18 158
e 19 38
e 19 59
e 19 123
e 19 137
e 19 148
e 20 32
e 20 62
e 20 78
e 20 83
e 20 92
e 20 114
e 20 121
e 20 139
e 20 149
e 20 150
e 21 42
e 21 62
e 21 68
e 21 89
e 21 101
e 21 123
e 21 137
e 21 138
e 21 157
e 22 28
e 22 39
e 22 128
e 22 148
e 22 160
e 23 25
e 23 35
e 23 45
e 23 46
e 23 59
e 23 61
e 23 69
e 23 71
e 23 138
e 23 157
e 24 48
e 24 49
e 24 50
e 24 65
e 24 93
e 24 99
e 24 106
e 25 41
e 25 43
e 25 44
e 25 102
e 25 105
e 25 145
e 26 28
e 26 29
e 26 38
e 26 48
e 26 56
e 26 116
e 26 117
e 26 153
e 26 154
e 27 35
e 27 60
e 27 82
e 27 96
e 27 112
e 27 130
e 27 131
e 27 143
e 27 152
e 27 154
e 28 35
e 28 42
e 28 51
e 28 56
e 28 81
e 28 86
e 28 89
e 28 135
e 28 151
e 28 160
e 29 39
e 29 70
e 29 79
e 29 87
e 29 96
e 29 114
e 29 125
e 29 127
e 29 144
e 29 158
e 30 72
e 30 73
e 30 111
e 30 115
e 30 122
e 30 127
e 30 129
e 30 152
e 31 61
e 31 96
e 31 106
e 31 111
e 31 124
e 31 147
e 31 149
e 32 39
e 32 87
e 32 90
e 32 92
e 32 101
e 32 129
e 33 47
e 33 78
e 33 87
e 33 95
e 33 96
e 33 135
e 33 148
e 34 38
e 34 59
e 34 66
e 34 79
e 34 81
e 34 83
e 34 85
e 34 91
e 34 113
e 34 115
e 34 116
e 34 154
e 35 47
e 35 55
e 35 61
e 35 70
e 35 98
e 35 102
e 35 104
e 35 105
e 35 130
e 36 49
e 36 73
e 36 114
e 36 128
e 36 144
e 37 59
e 37 60
e 37 67
e 37 98
e 37 102
e 37 119
e 37 120
e 37 126
e 37 157
e 38 47
e 38 50
e 38 62
e 38 68
e 38 128
e 38 131
e 38 133
e 39 47
e 39 48
e 39 74
e 39 107
e 39 109
e 39 117
e 39 154
e 40 66
e 40 69
e 40 83
e 40 102
e 40 107
e 40 112
e 40 124
e 41 56
e 41 58
e 41 70
e 41 83
e 41 88
e 41 92
e 41 94
e 41 141
e 41 146
e 41 150
e 41 154
e 42 48
e 42 80
e 42 85
e 42 88
e 42 90
e 42 130
e 42 132
e 43 55
e 43 81
e 43 98
e 43 126
e 44 49
e 44 60
e 44 66
e 44 85
e 44 100
e 44 107
e 44 152
e 44 153
e 44 156
e 44 158
e 45 64
e 45 71
e 45 76
e 45 99
e 45 117
e 45 126
e 45 143
e 45 149
e 46 100
e 46 102
e 46 122
e 46 124
e 46 137
e 47 66
e 47 117
e 47 125
e 47 129
e 47 142
e 47 146
e 47 147
e 48 55
e 48 61
e 48 66
e 48 69
e 48 71
e 48 86
e 48 92
e 48 99
e 48 103
e 48 120
e 48 122
e 48 126
e 48 128
e 49 54
e 49 57
e 49 67
e 49 78
e 49 84
e 49 88
e 49 94
e 49 97
e 49 109
e 49 119
e 49 135
e 49 140
e 50 55
e 50 92
e 50 118
e 50 139
e 51 72
e 51 76
e 51 77
e 51 81
e 51 83
e 51 85
e 51 127
e 51 141
e 51 142
e 52 54
e 52 83
e 52 114
e 52 118
e 52 149
e 53 56
e 53 141
e 53 159
e 54 66
e 54 76
e 54 93
e 54 120
e 54 145
e 54 154
e 55 58
e 55 81
e 55 102
e 55 107
e 55 109
e 55 133
e 55 158
e 56 67
e 56 149
e 56 157
e 57 106
e 57 114
e 57 120
e 57 154
e 58 96
e 58 99
e 58 106
e 58 113
e 58 116
e 58 127
e 58 136
e 58 156
e 58 158
e 59 61
e 59 70
e 59 74
e 59 88
e 59 119
e 60 67
e 60 71
e 60 83
e 60 92
e 60 115
e 60 124
e 60 149
e 60 155
e 61 81
e 61 83
e 61 86
e 61 87
e 61 95
e 61 128
e 62 107
e 62 111
e 62 134
e 62 148
e 62 153
e 63 64
e 63 65
e 63 66
e 63 79
e 63 82
e 63 85
e 63 106
e 63 114
e 63 135
e 64 94
e 64 121
e 64 132
e 64 136
e 64 153
e 65 97
e 65 100
e 65 111
e 65 123
e 65 153
e 65 158
e 66 72
e 66 80
e 66 107
e 66 109
e 66 110
e 66 113
e 66 136
e 67 96
e 67 119
e 68 81
e 68 148
e 68 156
e 69 82
e 69 84
e 69 98
e 69 99
e 69 115
e 69 124
e 69 130
e 69 136
e 70 73
e 70 75
e 70 79
e 70 80
e 70 90
e 70 119
e 70 128
e 71 84
e 71 119
e 71 154
e 72 77
e 72 94
e 72 120
e 72 142
e 72 147
e 72 155
e 73 83
e 73 84
e 73 96
e 73 138
e 73 151
e 74 83
e 74 99
e 74 104
e 74 105
e 74 147
e 74 150
e 74 158
e 75 85
e 75 101
e 75 106
e 75 114
e 75 120
e 75 129
e 75 137
e 75 142
e 75 143
e 76 115
e 76 117
e 76 120
e 76 123
e 76 129
e 76 134
e 76 151
e 76 152
e 76 159
e 77 80
e 77 87
e 77 103
e 77 143
e 77 145
e 77 147
e 77 158
e 77 160
e 78 80
e 78 85
e 78 103
e 78 134
e 78 147
e 78 149
e 78 159
e 79 133
e 79 152
e 80 133
e 80 147
e 81 93
e 81 127
e 81 129
e 81 131
e 81 132
e 81 143
e 81 145
e 81 148
e 81 155
e 82 115
e 82 137
e 82 139
e 82 141
e 82 155
e 82 160
e 83 96
e 83 106
e 83 111
e 83 144
e 84 106
e 84 120
e 85 89
e 85 93
e 85 113
e 85 114
e 86 95
e 86 122
e 86 132
e 87 98
e 87 112
e 87 141
e 87 146
e 87 153
e 87 160
e 88 97
e 88 115
e 88 116
e 88 117
e 88 131
e 88 135
e 88 136
e 88 137
e 89 93
e 89 98
e 89 100
e 89 139
e 89 144
e 90 91
e 90 110
e 90 123
e 90 128
e 90 160
e 91 119
e 91 127
e 91 137
e 91 141
e 91 144
e 92 111
e 92 157
e 92 159
e 93 105
e 93 114
e 93 141
e 93 155
e 94 106
e 94 108
e 94 109
e 94 132
e 94 152
e 95 97
e 95 103
e 95 107
e 95 111
e 95 113
e 95 137
e 96 100
e 96 121
e 96 132
e 96 133
e 96 140
e 98 105
e 98 106
e 98 108
e 98 115
e 98 141
e 99 112
e 99 147
e 100 123
e 100 128
e 101 118
e 101 125
e 101 141
e 101 145
e 102 114
e 102 123
e 102 143
e 102 153
e 103 115
e 103 117
e 103 137
e 103 140
e 103 149
e 104 121
e 104 124
e 104 126
e 104 129
e 104 134
e 104 138
e 104 154
e 105 108
e 105 115
e 105 130
e 105 133
e 105 141
e 106 107
e 106 117
e 106 136
e 106 143
e 107 127
e 107 151
e 107 153
e 108 134
e 108 135
e 108 142
e 109 117
e 109 133
e 109 150
e 110 139
e 110 146
e 110 150
e 111 140
e 111 143
e 111 146
e 111 149
e 111 151
e 112 128
e 112 144
e 112 157
e 113 120
e 113 126
e 113 129
e 113 132
e 113 148
e 113 150
e 114 125
e 114 138
e 115 141
e 115 151
e 115 157
e 116 136
e 116 147
e 117 124
e 117 138
e 117 141
e 117 148
e 117 151
e 119 136
e 119 145
e 119 146
e 120 127
e 120 133
e 121 133
e 122 126
e 122 133
e 122 147
e 123 136
e 123 144
e 123 148
e 123 159
e 124 136
e 124 145
e 124 152
e 124 154
e 125 135
e 125 136
e 125 138
e 125 147
e 125 149
e 127 131
e 127 132
e 127 133
e 127 144
e 127 146
e 128 144
e 128 151
e 130 141
e 130 159
e 131 134
e 132 143
e 132 144
e 132 158
e 133 143
e 133 157
e 134 158
e 134 160
e 136 158
e 137 156
e 138 142
e 138 143
e 138 152
e 138 159
e 139 142
e 140 154
e 141 143
e 141 144
e 141 157
e 142 150
e 142 151
e 144 151
e 146 149
e 147 150
e 148 155
e 148 159
e 150 154
e 151 154
e 152 158
e 153 156
